linearProgramming/models/LP1-prob1-model3.sol
# Solution for model Product Manufaturer
# Objective value = 960
Produce[Product1] 1200
Produce[Product2] 0
Produce[Product3] 0
Produce[Product4] 0
